Strategies:  

WARNING: for repeatability, setting FPU to use double precision
============================[ Problem Statistics ]=============================
|                                                                             |
|  Number of variables:           999                                         |
|  Number of clauses:            9072                                         |
|  Parse time:                   0.00 s                                       |
|  Eliminated clauses:           0.00 Mb                                      |
|  Simplification time:          0.00 s                                       |
|                                                                             |
============================[ Search Statistics ]==============================
| Conflicts |          ORIGINAL         |          LEARNT          | Progress |
|           |    Vars  Clauses Literals |    Limit  Clauses Lit/Cl |          |
===============================================================================
===============================================================================
restarts              : 1
conflicts             : 12             (3000 /sec)
decisions             : 20             (0.00 % random) (5000 /sec)
propagations          : 1478           (369500 /sec)
conflict literals     : 36             (14.29 % deleted)
Memory used           : 22.00 MB
CPU time              : 0.004 s

SATISFIABLE


Strategies: -b -p  

WARNING: for repeatability, setting FPU to use double precision
============================[ Problem Statistics ]=============================
|                                                                             |
|  Number of variables:           999                                         |
|  Number of clauses:          338580                                         |
|  Parse time:                   0.26 s                                       |
|  Eliminated clauses:           0.00 Mb                                      |
|  Simplification time:         26.44 s                                       |
|                                                                             |
============================[ Search Statistics ]==============================
| Conflicts |          ORIGINAL         |          LEARNT          | Progress |
|           |    Vars  Clauses Literals |    Limit  Clauses Lit/Cl |          |
===============================================================================
===============================================================================
restarts              : 1
conflicts             : 2              (0 /sec)
decisions             : 4              (0.00 % random) (0 /sec)
propagations          : 876            (33 /sec)
conflict literals     : 3              (25.00 % deleted)
Memory used           : 90.00 MB
CPU time              : 26.696 s

SATISFIABLE


Strategies: -b -x  

WARNING: for repeatability, setting FPU to use double precision
============================[ Problem Statistics ]=============================
|                                                                             |
|  Number of variables:           999                                         |
|  Number of clauses:          302292                                         |
|  Parse time:                   0.22 s                                       |
|  Eliminated clauses:           0.00 Mb                                      |
|  Simplification time:          0.34 s                                       |
|                                                                             |
============================[ Search Statistics ]==============================
| Conflicts |          ORIGINAL         |          LEARNT          | Progress |
|           |    Vars  Clauses Literals |    Limit  Clauses Lit/Cl |          |
===============================================================================
===============================================================================
restarts              : 1
conflicts             : 2              (4 /sec)
decisions             : 4              (0.00 % random) (7 /sec)
propagations          : 868            (1550 /sec)
conflict literals     : 3              (25.00 % deleted)
Memory used           : 77.00 MB
CPU time              : 0.56 s

SATISFIABLE


Strategies: -b -x -p  

WARNING: for repeatability, setting FPU to use double precision
============================[ Problem Statistics ]=============================
|                                                                             |
|  Number of variables:           999                                         |
|  Number of clauses:          628884                                         |
|  Parse time:                   0.54 s                                       |
|  Eliminated clauses:           0.00 Mb                                      |
|  Simplification time:         27.52 s                                       |
|                                                                             |
============================[ Search Statistics ]==============================
| Conflicts |          ORIGINAL         |          LEARNT          | Progress |
|           |    Vars  Clauses Literals |    Limit  Clauses Lit/Cl |          |
===============================================================================
===============================================================================
restarts              : 1
conflicts             : 2              (0 /sec)
decisions             : 4              (0.00 % random) (0 /sec)
propagations          : 876            (31 /sec)
conflict literals     : 3              (25.00 % deleted)
Memory used           : 142.00 MB
CPU time              : 28.068 s

SATISFIABLE


Strategies: -b -a  

WARNING: for repeatability, setting FPU to use double precision
============================[ Problem Statistics ]=============================
|                                                                             |
|  Number of variables:           999                                         |
|  Number of clauses:          956772                                         |
|  Parse time:                   0.94 s                                       |
|  Eliminated clauses:           0.00 Mb                                      |
|  Simplification time:          2.44 s                                       |
|                                                                             |
============================[ Search Statistics ]==============================
| Conflicts |          ORIGINAL         |          LEARNT          | Progress |
|           |    Vars  Clauses Literals |    Limit  Clauses Lit/Cl |          |
===============================================================================
===============================================================================
restarts              : 1
conflicts             : 2              (1 /sec)
decisions             : 4              (0.00 % random) (1 /sec)
propagations          : 868            (257 /sec)
conflict literals     : 3              (25.00 % deleted)
Memory used           : 287.00 MB
CPU time              : 3.384 s

SATISFIABLE


Strategies: -b  

WARNING: for repeatability, setting FPU to use double precision
============================[ Problem Statistics ]=============================
|                                                                             |
|  Number of variables:           999                                         |
|  Number of clauses:           11988                                         |
|  Parse time:                   0.00 s                                       |
|  Eliminated clauses:           0.00 Mb                                      |
|  Simplification time:          0.01 s                                       |
|                                                                             |
============================[ Search Statistics ]==============================
| Conflicts |          ORIGINAL         |          LEARNT          | Progress |
|           |    Vars  Clauses Literals |    Limit  Clauses Lit/Cl |          |
===============================================================================
===============================================================================
restarts              : 1
conflicts             : 2              (250 /sec)
decisions             : 4              (0.00 % random) (500 /sec)
propagations          : 868            (108500 /sec)
conflict literals     : 3              (25.00 % deleted)
Memory used           : 23.00 MB
CPU time              : 0.008 s

SATISFIABLE


